c This Formular is generated by mcnf
c
c    horn? no 
c    forced? no 
c    mixed sat? no 
c    clause length = 3 
c
p cnf 20  20 
 -6 -7 -3 0
-16 12 18 0
12 -7 -19 0
14 1 11 0
4 5 -20 0
-17 -9 -1 0
-17 -16 -2 0
-15 -5 -18 0
-7 8 -15 0
4 -13 3 0
-17 10 -15 0
7 -6 10 0
-20 14 8 0
11 13 -10 0
3 -14 12 0
11 13 14 0
20 16 10 0
-12 3 20 0
-10 -2 -12 0
17 5 3 0